Code 1334
Dimension, Median
   128       16
 Facility, Client, Transportation Cost
     1        1           2
     1        2           4
     1        3           1
     1        5           4
     1        9           2
     1       17           3
     1       33           3
     1       65           1
     2        1           2
     2        2           3
     2        4           1
     2        6           1
     2       10           1
     2       18           3
     2       34           1
     2       66           2
     3        1           3
     3        3           0
     3        4           4
     3        7           0
     3       11           0
     3       19           0
     3       35           4
     3       67           0
     4        2           0
     4        3           1
     4        4           0
     4        8           1
     4       12           2
     4       20           4
     4       36           4
     4       68           1
     5        1           4
     5        5           0
     5        6           0
     5        7           2
     5       13           3
     5       21           4
     5       37           2
     5       69           1
     6        2           1
     6        5           1
     6        6           4
     6        8           0
     6       14           0
     6       22           2
     6       38           1
     6       70           1
     7        3           2
     7        5           4
     7        7           1
     7        8           3
     7       15           2
     7       23           0
     7       39           0
     7       71           1
     8        4           2
     8        6           0
     8        7           0
     8        8           3
     8       16           1
     8       24           1
     8       40           1
     8       72           1
     9        1           1
     9        9           0
     9       10           3
     9       11           2
     9       13           4
     9       25           3
     9       41           2
     9       73           2
    10        2           1
    10        9           4
    10       10           0
    10       12           4
    10       14           1
    10       26           1
    10       42           0
    10       74           1
    11        3           4
    11        9           0
    11       11           1
    11       12           2
    11       15           4
    11       27           3
    11       43           4
    11       75           3
    12        4           1
    12       10           3
    12       11           2
    12       12           0
    12       16           2
    12       28           4
    12       44           4
    12       76           3
    13        5           3
    13        9           1
    13       13           3
    13       14           0
    13       15           1
    13       29           1
    13       45           1
    13       77           4
    14        6           4
    14       10           4
    14       13           2
    14       14           2
    14       16           4
    14       30           4
    14       46           3
    14       78           0
    15        7           2
    15       11           0
    15       13           4
    15       15           4
    15       16           3
    15       31           3
    15       47           0
    15       79           4
    16        8           4
    16       12           2
    16       14           4
    16       15           0
    16       16           3
    16       32           3
    16       48           3
    16       80           1
    17        1           0
    17       17           0
    17       18           0
    17       19           0
    17       21           0
    17       25           4
    17       49           3
    17       81           1
    18        2           2
    18       17           3
    18       18           2
    18       20           0
    18       22           3
    18       26           0
    18       50           4
    18       82           0
    19        3           4
    19       17           4
    19       19           0
    19       20           1
    19       23           4
    19       27           2
    19       51           0
    19       83           3
    20        4           2
    20       18           0
    20       19           3
    20       20           0
    20       24           2
    20       28           4
    20       52           4
    20       84           0
    21        5           1
    21       17           2
    21       21           1
    21       22           2
    21       23           3
    21       29           3
    21       53           4
    21       85           2
    22        6           1
    22       18           1
    22       21           2
    22       22           2
    22       24           4
    22       30           3
    22       54           2
    22       86           4
    23        7           0
    23       19           3
    23       21           1
    23       23           3
    23       24           3
    23       31           1
    23       55           3
    23       87           0
    24        8           2
    24       20           1
    24       22           0
    24       23           3
    24       24           0
    24       32           3
    24       56           3
    24       88           3
    25        9           1
    25       17           1
    25       25           0
    25       26           0
    25       27           3
    25       29           4
    25       57           4
    25       89           0
    26       10           4
    26       18           0
    26       25           1
    26       26           0
    26       28           2
    26       30           2
    26       58           3
    26       90           2
    27       11           1
    27       19           1
    27       25           4
    27       27           2
    27       28           4
    27       31           3
    27       59           2
    27       91           4
    28       12           1
    28       20           4
    28       26           4
    28       27           4
    28       28           2
    28       32           3
    28       60           2
    28       92           1
    29       13           4
    29       21           0
    29       25           2
    29       29           1
    29       30           0
    29       31           4
    29       61           1
    29       93           3
    30       14           1
    30       22           1
    30       26           0
    30       29           1
    30       30           1
    30       32           1
    30       62           3
    30       94           1
    31       15           1
    31       23           4
    31       27           1
    31       29           0
    31       31           3
    31       32           1
    31       63           2
    31       95           4
    32       16           0
    32       24           3
    32       28           0
    32       30           2
    32       31           4
    32       32           2
    32       64           3
    32       96           0
    33        1           4
    33       33           0
    33       34           2
    33       35           1
    33       37           0
    33       41           0
    33       49           0
    33       97           1
    34        2           4
    34       33           3
    34       34           2
    34       36           2
    34       38           4
    34       42           0
    34       50           1
    34       98           2
    35        3           3
    35       33           1
    35       35           3
    35       36           1
    35       39           0
    35       43           0
    35       51           1
    35       99           2
    36        4           0
    36       34           3
    36       35           0
    36       36           3
    36       40           0
    36       44           0
    36       52           3
    36      100           4
    37        5           0
    37       33           2
    37       37           0
    37       38           1
    37       39           3
    37       45           2
    37       53           1
    37      101           0
    38        6           4
    38       34           1
    38       37           0
    38       38           0
    38       40           0
    38       46           3
    38       54           1
    38      102           3
    39        7           3
    39       35           1
    39       37           2
    39       39           1
    39       40           2
    39       47           4
    39       55           0
    39      103           2
    40        8           2
    40       36           2
    40       38           3
    40       39           2
    40       40           3
    40       48           2
    40       56           0
    40      104           0
    41        9           0
    41       33           1
    41       41           1
    41       42           0
    41       43           3
    41       45           3
    41       57           3
    41      105           1
    42       10           1
    42       34           2
    42       41           0
    42       42           2
    42       44           0
    42       46           4
    42       58           2
    42      106           0
    43       11           0
    43       35           2
    43       41           4
    43       43           4
    43       44           3
    43       47           2
    43       59           4
    43      107           1
    44       12           0
    44       36           3
    44       42           4
    44       43           2
    44       44           4
    44       48           4
    44       60           2
    44      108           4
    45       13           2
    45       37           0
    45       41           0
    45       45           2
    45       46           2
    45       47           4
    45       61           1
    45      109           3
    46       14           0
    46       38           2
    46       42           4
    46       45           0
    46       46           0
    46       48           4
    46       62           3
    46      110           0
    47       15           4
    47       39           0
    47       43           2
    47       45           1
    47       47           0
    47       48           4
    47       63           0
    47      111           4
    48       16           1
    48       40           4
    48       44           0
    48       46           0
    48       47           2
    48       48           2
    48       64           3
    48      112           2
    49       17           1
    49       33           0
    49       49           2
    49       50           1
    49       51           1
    49       53           2
    49       57           3
    49      113           4
    50       18           3
    50       34           1
    50       49           2
    50       50           1
    50       52           4
    50       54           1
    50       58           1
    50      114           3
    51       19           2
    51       35           0
    51       49           0
    51       51           1
    51       52           0
    51       55           3
    51       59           2
    51      115           2
    52       20           4
    52       36           3
    52       50           4
    52       51           0
    52       52           0
    52       56           2
    52       60           2
    52      116           0
    53       21           2
    53       37           3
    53       49           1
    53       53           1
    53       54           0
    53       55           0
    53       61           4
    53      117           0
    54       22           2
    54       38           0
    54       50           4
    54       53           1
    54       54           4
    54       56           0
    54       62           4
    54      118           1
    55       23           2
    55       39           2
    55       51           3
    55       53           3
    55       55           3
    55       56           4
    55       63           2
    55      119           2
    56       24           0
    56       40           0
    56       52           2
    56       54           0
    56       55           0
    56       56           0
    56       64           3
    56      120           2
    57       25           0
    57       41           3
    57       49           4
    57       57           3
    57       58           4
    57       59           3
    57       61           0
    57      121           2
    58       26           0
    58       42           4
    58       50           1
    58       57           1
    58       58           0
    58       60           2
    58       62           0
    58      122           1
    59       27           4
    59       43           3
    59       51           0
    59       57           1
    59       59           1
    59       60           2
    59       63           2
    59      123           3
    60       28           3
    60       44           0
    60       52           0
    60       58           0
    60       59           2
    60       60           2
    60       64           1
    60      124           3
    61       29           0
    61       45           4
    61       53           3
    61       57           4
    61       61           3
    61       62           4
    61       63           4
    61      125           2
    62       30           4
    62       46           1
    62       54           4
    62       58           3
    62       61           3
    62       62           1
    62       64           3
    62      126           4
    63       31           3
    63       47           4
    63       55           2
    63       59           2
    63       61           2
    63       63           1
    63       64           0
    63      127           3
    64       32           2
    64       48           3
    64       56           2
    64       60           4
    64       62           0
    64       63           4
    64       64           1
    64      128           1
    65        1           1
    65       65           3
    65       66           4
    65       67           1
    65       69           3
    65       73           0
    65       81           3
    65       97           4
    66        2           0
    66       65           1
    66       66           2
    66       68           2
    66       70           4
    66       74           1
    66       82           2
    66       98           3
    67        3           2
    67       65           2
    67       67           3
    67       68           1
    67       71           1
    67       75           1
    67       83           2
    67       99           3
    68        4           0
    68       66           3
    68       67           3
    68       68           1
    68       72           0
    68       76           2
    68       84           3
    68      100           1
    69        5           4
    69       65           1
    69       69           2
    69       70           1
    69       71           1
    69       77           3
    69       85           0
    69      101           4
    70        6           4
    70       66           0
    70       69           3
    70       70           1
    70       72           1
    70       78           4
    70       86           1
    70      102           1
    71        7           0
    71       67           0
    71       69           2
    71       71           0
    71       72           2
    71       79           1
    71       87           3
    71      103           4
    72        8           3
    72       68           0
    72       70           0
    72       71           0
    72       72           3
    72       80           3
    72       88           4
    72      104           4
    73        9           1
    73       65           3
    73       73           3
    73       74           4
    73       75           1
    73       77           1
    73       89           4
    73      105           0
    74       10           4
    74       66           3
    74       73           1
    74       74           4
    74       76           3
    74       78           4
    74       90           1
    74      106           4
    75       11           2
    75       67           2
    75       73           1
    75       75           2
    75       76           1
    75       79           1
    75       91           0
    75      107           4
    76       12           4
    76       68           2
    76       74           0
    76       75           1
    76       76           4
    76       80           3
    76       92           4
    76      108           3
    77       13           4
    77       69           3
    77       73           3
    77       77           3
    77       78           0
    77       79           0
    77       93           2
    77      109           1
    78       14           0
    78       70           1
    78       74           0
    78       77           2
    78       78           4
    78       80           1
    78       94           1
    78      110           2
    79       15           4
    79       71           0
    79       75           3
    79       77           0
    79       79           1
    79       80           3
    79       95           2
    79      111           1
    80       16           1
    80       72           3
    80       76           0
    80       78           4
    80       79           0
    80       80           3
    80       96           1
    80      112           4
    81       17           2
    81       65           4
    81       81           1
    81       82           3
    81       83           1
    81       85           4
    81       89           4
    81      113           0
    82       18           2
    82       66           1
    82       81           4
    82       82           1
    82       84           1
    82       86           0
    82       90           2
    82      114           3
    83       19           0
    83       67           0
    83       81           3
    83       83           4
    83       84           0
    83       87           3
    83       91           3
    83      115           2
    84       20           2
    84       68           1
    84       82           0
    84       83           1
    84       84           2
    84       88           1
    84       92           2
    84      116           4
    85       21           3
    85       69           2
    85       81           4
    85       85           0
    85       86           1
    85       87           0
    85       93           3
    85      117           4
    86       22           2
    86       70           4
    86       82           0
    86       85           2
    86       86           3
    86       88           3
    86       94           1
    86      118           0
    87       23           0
    87       71           0
    87       83           1
    87       85           2
    87       87           0
    87       88           0
    87       95           3
    87      119           1
    88       24           1
    88       72           3
    88       84           4
    88       86           4
    88       87           1
    88       88           2
    88       96           3
    88      120           2
    89       25           2
    89       73           2
    89       81           2
    89       89           4
    89       90           3
    89       91           4
    89       93           1
    89      121           1
    90       26           0
    90       74           4
    90       82           4
    90       89           4
    90       90           0
    90       92           3
    90       94           3
    90      122           3
    91       27           4
    91       75           1
    91       83           1
    91       89           0
    91       91           0
    91       92           1
    91       95           2
    91      123           4
    92       28           4
    92       76           3
    92       84           2
    92       90           0
    92       91           3
    92       92           4
    92       96           4
    92      124           0
    93       29           4
    93       77           4
    93       85           1
    93       89           4
    93       93           4
    93       94           1
    93       95           2
    93      125           1
    94       30           1
    94       78           3
    94       86           3
    94       90           3
    94       93           1
    94       94           3
    94       96           1
    94      126           1
    95       31           4
    95       79           3
    95       87           3
    95       91           0
    95       93           3
    95       95           3
    95       96           0
    95      127           2
    96       32           1
    96       80           2
    96       88           0
    96       92           4
    96       94           2
    96       95           2
    96       96           1
    96      128           0
    97       33           0
    97       65           1
    97       97           4
    97       98           2
    97       99           3
    97      101           3
    97      105           1
    97      113           1
    98       34           3
    98       66           2
    98       97           1
    98       98           0
    98      100           4
    98      102           1
    98      106           1
    98      114           2
    99       35           1
    99       67           3
    99       97           1
    99       99           3
    99      100           3
    99      103           1
    99      107           3
    99      115           3
   100       36           1
   100       68           1
   100       98           2
   100       99           3
   100      100           1
   100      104           0
   100      108           4
   100      116           4
   101       37           4
   101       69           4
   101       97           0
   101      101           1
   101      102           1
   101      103           2
   101      109           4
   101      117           1
   102       38           4
   102       70           1
   102       98           3
   102      101           3
   102      102           0
   102      104           0
   102      110           1
   102      118           3
   103       39           3
   103       71           1
   103       99           1
   103      101           1
   103      103           2
   103      104           0
   103      111           2
   103      119           2
   104       40           3
   104       72           3
   104      100           3
   104      102           4
   104      103           1
   104      104           4
   104      112           2
   104      120           2
   105       41           2
   105       73           3
   105       97           1
   105      105           0
   105      106           3
   105      107           1
   105      109           4
   105      121           1
   106       42           1
   106       74           4
   106       98           1
   106      105           3
   106      106           2
   106      108           4
   106      110           0
   106      122           3
   107       43           2
   107       75           1
   107       99           0
   107      105           4
   107      107           0
   107      108           0
   107      111           3
   107      123           2
   108       44           4
   108       76           4
   108      100           3
   108      106           2
   108      107           3
   108      108           0
   108      112           0
   108      124           4
   109       45           3
   109       77           0
   109      101           0
   109      105           4
   109      109           4
   109      110           4
   109      111           1
   109      125           0
   110       46           4
   110       78           3
   110      102           3
   110      106           0
   110      109           2
   110      110           0
   110      112           1
   110      126           3
   111       47           3
   111       79           1
   111      103           1
   111      107           4
   111      109           1
   111      111           3
   111      112           0
   111      127           4
   112       48           0
   112       80           3
   112      104           2
   112      108           3
   112      110           3
   112      111           2
   112      112           1
   112      128           0
   113       49           1
   113       81           0
   113       97           1
   113      113           4
   113      114           4
   113      115           3
   113      117           3
   113      121           1
   114       50           1
   114       82           4
   114       98           0
   114      113           2
   114      114           4
   114      116           3
   114      118           1
   114      122           3
   115       51           4
   115       83           1
   115       99           1
   115      113           2
   115      115           3
   115      116           3
   115      119           2
   115      123           2
   116       52           1
   116       84           3
   116      100           4
   116      114           4
   116      115           0
   116      116           1
   116      120           2
   116      124           0
   117       53           0
   117       85           3
   117      101           0
   117      113           1
   117      117           4
   117      118           2
   117      119           1
   117      125           2
   118       54           2
   118       86           4
   118      102           4
   118      114           0
   118      117           3
   118      118           0
   118      120           1
   118      126           0
   119       55           1
   119       87           2
   119      103           4
   119      115           2
   119      117           2
   119      119           2
   119      120           0
   119      127           2
   120       56           1
   120       88           3
   120      104           4
   120      116           2
   120      118           3
   120      119           4
   120      120           2
   120      128           2
   121       57           4
   121       89           3
   121      105           0
   121      113           2
   121      121           3
   121      122           4
   121      123           0
   121      125           2
   122       58           4
   122       90           1
   122      106           2
   122      114           3
   122      121           4
   122      122           1
   122      124           1
   122      126           4
   123       59           2
   123       91           4
   123      107           1
   123      115           1
   123      121           2
   123      123           4
   123      124           4
   123      127           0
   124       60           2
   124       92           1
   124      108           3
   124      116           2
   124      122           1
   124      123           4
   124      124           4
   124      128           4
   125       61           1
   125       93           1
   125      109           0
   125      117           4
   125      121           4
   125      125           1
   125      126           2
   125      127           3
   126       62           2
   126       94           2
   126      110           1
   126      118           3
   126      122           0
   126      125           2
   126      126           4
   126      128           2
   127       63           0
   127       95           4
   127      111           2
   127      119           1
   127      123           1
   127      125           2
   127      127           0
   127      128           2
   128       64           4
   128       96           4
   128      112           3
   128      120           2
   128      124           2
   128      126           3
   128      127           2
   128      128           4
